Maximize
  10 x_chemical_reaction_A + 8 x_chemical_reaction_B
Subject To
  c1: 5 x_chemical_reaction_A + 7 x_chemical_reaction_B <= 1000
  c2: 6 x_chemical_reaction_A + 3 x_chemical_reaction_B <= 800
Integer
  x_chemical_reaction_A x_chemical_reaction_B
End